NAME: random-74-28726
TYPE: TSP
COMMENT: size=74 seed=28726
DIMENSION: 150
EDGE_WEIGHT_TYPE: EUC_2D
NODE_COORD_SECTION
+0 882 408
-0 882 408
+1 492 489
-1 847 281
+2 187 431
-2 88 550
+3 302 21
-3 417 426
+4 889 267
-4 429 72
+5 154 678
-5 788 613
+6 578 366
-6 147 580
+7 413 336
-7 19 258
+8 979 981
-8 892 642
+9 823 158
-9 558 428
+10 930 944
-10 245 856
+11 505 581
-11 360 208
+12 893 390
-12 80 297
+13 998 632
-13 928 139
+14 199 754
-14 81 445
+15 583 192
-15 917 316
+16 252 995
-16 987 126
+17 953 12
-17 547 208
+18 537 688
-18 591 337
+19 328 750
-19 425 466
+20 477 397
-20 269 654
+21 515 222
-21 474 118
+22 56 673
-22 882 345
+23 929 964
-23 892 169
+24 277 731
-24 796 540
+25 928 895
-25 596 194
+26 957 521
-26 799 219
+27 700 911
-27 513 441
+28 160 261
-28 7 712
+29 9 857
-29 858 450
+30 149 493
-30 602 508
+31 286 438
-31 564 303
+32 544 125
-32 979 33
+33 786 468
-33 788 407
+34 885 926
-34 197 496
+35 43 391
-35 963 397
+36 54 466
-36 409 85
+37 636 5
-37 809 772
+38 830 108
-38 614 726
+39 381 331
-39 551 833
+40 305 161
-40 837 834
+41 483 297
-41 323 631
+42 317 142
-42 180 717
+43 929 415
-43 217 722
+44 257 427
-44 386 409
+45 630 718
-45 133 653
+46 129 109
-46 9 987
+47 603 257
-47 105 270
+48 448 495
-48 86 818
+49 276 114
-49 814 922
+50 367 533
-50 536 344
+51 301 120
-51 80 239
+52 457 451
-52 276 662
+53 870 46
-53 22 807
+54 961 837
-54 504 194
+55 766 408
-55 447 192
+56 871 599
-56 711 282
+57 52 369
-57 241 358
+58 869 678
-58 538 74
+59 905 526
-59 475 46
+60 346 73
-60 520 719
+61 755 280
-61 876 844
+62 957 171
-62 745 13
+63 503 51
-63 930 21
+64 943 503
-64 794 342
+65 686 815
-65 282 171
+66 392 903
-66 683 62
+67 846 327
-67 45 457
+68 94 605
-68 163 549
+69 996 605
-69 955 965
+70 139 837
-70 234 754
+71 434 697
-71 455 451
+72 620 67
-72 369 744
+73 265 269
-73 152 89
+74 804 668
-74 959 766
PRECEDENCE_SECTION
+0 -0
+1 -1
+2 -2
+3 -3
+4 -4
+5 -5
+6 -6
+7 -7
+8 -8
+9 -9
+10 -10
+11 -11
+12 -12
+13 -13
+14 -14
+15 -15
+16 -16
+17 -17
+18 -18
+19 -19
+20 -20
+21 -21
+22 -22
+23 -23
+24 -24
+25 -25
+26 -26
+27 -27
+28 -28
+29 -29
+30 -30
+31 -31
+32 -32
+33 -33
+34 -34
+35 -35
+36 -36
+37 -37
+38 -38
+39 -39
+40 -40
+41 -41
+42 -42
+43 -43
+44 -44
+45 -45
+46 -46
+47 -47
+48 -48
+49 -49
+50 -50
+51 -51
+52 -52
+53 -53
+54 -54
+55 -55
+56 -56
+57 -57
+58 -58
+59 -59
+60 -60
+61 -61
+62 -62
+63 -63
+64 -64
+65 -65
+66 -66
+67 -67
+68 -68
+69 -69
+70 -70
+71 -71
+72 -72
+73 -73
+74 -74
EOF
